<number of tasks>
20

<cycle time>
1000

<order strength>
0,5


<task times>
1 410
2 640
3 469
4 480
5 566
6 399
7 422
8 439
9 687
10 289
11 580
12 505
13 365
14 525
15 666
16 483
17 716
18 533
19 494
20 515

<precedence relations>
1,8
2,8
3,4
3,5
3,6
3,7
4,8
5,8
6,20
7,8
7,9
7,10
7,11
8,12
8,13
8,14
8,15
8,16
9,17
10,17
10,18
11,19
12,17
12,18
17,19
17,20
18,20

<end>
